8871
1 1 1 0 0 1 1 1 1 1
1 1 0 9 0 5 8 2 8 6 5 2 6 6 1 2 0 2 8 1 5 7 6 6 5 9 0 5 2 5 0 1 6 2 9 0 8 5 7 5 2 1 7 9 9 2 7 5 7 5 6 7 6 5 5 1 8 5 7 5 1 2 0 9 0 2 8 2 6 1 0 7 6 0 9 1 9 5 7 5 0 7 6 0 7 2 8 5 7 5 5 5 6 6 1 2 0 2 8 6